3 48 1 10
6 7 6 11 11 12 18 11 11 2 2 18 19 1 3 6 9 17 14 20 13 17 7 14 12 19 12 10 2 20 18 7 8 4 9 14 10 3 17 15 8 16 19 11 11 8 15 8 
12.27 0.28 1.49 3.18 8.95 15.56 2.43 15.71 5.31 9.09 7.93 2.54 4.85 0.37 15.89 6.5 5.02 9.63 5.3 2.49 9 2.62 3.88 2.33 15.34 7.55 15.62 2.95 9.59 10.15 13.37 1.69 6.36 5.99 6.64 9.2 5.62 15.69 14.25 11.11 12.67 7.87 0.34 15.1 2.76 7.03 7.62 14.66 
8 8 8 8 8 8 8 8 8 8 8 8 8 8 8 8 8 8 8 8 8 8 8 8 8 8 8 8 8 8 8 8 8 8 8 8 8 8 8 8 8 8 8 8 8 8 8 8 
8.62 1.05 7.43 13.91 5.77 9.76 1.13 15.46 3.13 13.51 14.95 0.92 10.57 8.93 6.06 5.91 4.71 11.79 1.06 5.85 2.48 10.71 13.78 12.18 6.33 4.86 9.27 13.77 3.22 8.04 12.52 1.45 2.29 4.73 4.16 11.41 0.3 2.69 0.58 15.4 3.21 10.45 9.46 13.07 12.69 1.57 2.97 14.36 
1 1 1 1 1 1 1 1 1 1 1 1 1 1 1 1 1 1 1 1 1 1 1 1 1 1 1 1 1 1 1 1 1 1 1 1 1 1 1 1 1 1 1 1 1 1 1 1 
1 1 1 1 1 1 1 1 1 1 1 1 1 1 1 1 1 1 1 1 1 1 1 1 1 1 1 1 1 1 1 1 1 1 1 1 1 1 1 1 1 1 1 1 1 1 1 1 
1 1 1 1 1 1 1 1 1 1 1 1 1 1 1 1 1 1 1 1 1 1 1 1 1 1 1 1 1 1 1 1 1 1 1 1 1 1 1 1 1 1 1 1 1 1 1 1 
0.01 0.01 0.01 0.01 0.01 0.01 0.01 0.01 0.01 0.01 0.01 0.01 0.01 0.01 0.01 0.01 0.01 0.01 0.01 0.01 0.01 0.01 0.01 0.01 0.01 0.01 0.01 0.01 0.01 0.01 0.01 0.01 0.01 0.01 0.01 0.01 0.01 0.01 0.01 0.01 0.01 0.01 0.01 0.01 0.01 0.01 0.01 0.01 
0.02 0.02 0.02 0.02 0.02 0.02 0.02 0.02 0.02 0.02 0.02 0.02 0.02 0.02 0.02 0.02 0.02 0.02 0.02 0.02 0.02 0.02 0.02 0.02 0.02 0.02 0.02 0.02 0.02 0.02 0.02 0.02 0.02 0.02 0.02 0.02 0.02 0.02 0.02 0.02 0.02 0.02 0.02 0.02 0.02 0.02 0.02 0.02 
1 1 1 1 1 1 1 1 1 1 1 1 1 1 1 1 1 1 1 1 1 1 1 1 1 1 1 1 1 1 1 1 1 1 1 1 1 1 1 1 1 1 1 1 1 1 1 1 
